750
200 200
1 160 747
2 160 544
3 160 726
4 160 202
5 159 225
6 159 34
7 159 470
8 159 339
9 158 439
10 158 34
11 158 682
12 158 136
13 157 209
14 157 931
15 157 123
16 157 36
17 157 705
18 156 162
19 156 124
20 156 253
21 156 546
22 156 18
23 156 559
24 156 579
25 156 95
26 155 734
27 155 330
28 154 975
29 154 129
30 154 940
31 154 477
32 154 861
33 154 486
34 152 240
35 152 444
36 152 727
37 152 86
38 152 153
39 152 392
40 151 41
41 151 958
42 151 319
43 151 415
44 151 934
45 150 782
46 150 911
47 150 308
48 150 796
49 150 244
50 150 825
51 150 736
52 149 413
53 149 838
54 149 459
55 149 641
56 149 611
57 149 318
58 149 349
59 148 312
60 148 414
61 148 680
62 147 595
63 147 234
64 147 602
65 147 300
66 147 17
67 146 799
68 146 555
69 146 471
70 146 998
71 146 987
72 146 652
73 146 736
74 145 589
75 145 374
76 145 120
77 145 295
78 145 518
79 145 405
80 145 11
81 145 549
82 145 279
83 144 808
84 144 229
85 144 419
86 144 442
87 143 721
88 143 1
89 143 285
90 143 227
91 142 101
92 142 145
93 142 850
94 142 375
95 142 585
96 142 70
97 142 607
98 142 88
99 141 336
100 141 904
101 141 656
102 141 577
103 140 166
104 140 680
105 139 98
106 139 417
107 139 67
108 139 913
109 138 711
110 138 661
111 137 362
112 137 185
113 137 138
114 137 527
115 136 942
116 136 205
117 136 47
118 136 577
119 136 12
120 136 971
121 135 302
122 135 111
123 134 542
124 134 402
125 134 569
126 134 966
127 134 604
128 134 680
129 134 723
130 133 840
131 133 283
132 133 367
133 133 28
134 133 773
135 132 741
136 132 946
137 132 580
138 132 620
139 132 36
140 131 190
141 131 45
142 131 801
143 131 934
144 131 355
145 131 143
146 130 605
147 130 463
148 130 579
149 129 522
150 129 916
151 129 513
152 129 620
153 129 562
154 129 322
155 128 268
156 128 853
157 128 367
158 128 316
159 127 54
160 127 309
161 126 123
162 126 841
163 126 585
164 126 77
165 126 770
166 126 854
167 126 822
168 126 299
169 126 750
170 126 383
171 125 571
172 125 807
173 125 596
174 125 935
175 124 70
176 124 446
177 124 726
178 124 988
179 124 127
180 124 985
181 124 480
182 124 535
183 123 753
184 123 312
185 123 126
186 123 564
187 122 159
188 122 207
189 122 34
190 122 118
191 122 642
192 121 572
193 121 879
194 121 916
195 121 489
196 121 143
197 121 541
198 121 432
199 121 346
200 121 790
201 121 920
202 121 370
203 121 545
204 120 671
205 120 347
206 120 538
207 120 531
208 120 473
209 120 428
210 120 365
211 120 295
212 120 780
213 120 779
214 119 11
215 119 764
216 119 582
217 119 313
218 119 902
219 119 864
220 118 563
221 118 347
222 118 108
223 118 797
224 118 631
225 117 470
226 116 939
227 116 904
228 116 577
229 116 614
230 116 425
231 116 589
232 116 361
233 116 425
234 115 132
235 115 568
236 115 228
237 115 303
238 115 992
239 115 193
240 115 446
241 115 151
242 114 58
243 114 320
244 114 946
245 114 320
246 114 475
247 113 969
248 113 113
249 113 825
250 113 397
251 113 909
252 112 13
253 112 153
254 112 830
255 112 663
256 112 416
257 111 842
258 111 111
259 110 237
260 110 220
261 110 217
262 109 414
263 109 760
264 109 427
265 109 928
266 109 50
267 109 741
268 109 647
269 109 129
270 109 774
271 109 124
272 108 564
273 108 386
274 108 504
275 108 496
276 108 315
277 107 911
278 107 8
279 107 591
280 107 971
281 107 576
282 106 952
283 106 558
284 106 303
285 106 737
286 106 693
287 105 327
288 105 683
289 105 913
290 104 404
291 104 936
292 104 691
293 104 13
294 104 894
295 104 66
296 104 230
297 103 163
298 103 33
299 103 244
300 103 840
301 102 956
302 102 20
303 102 852
304 102 448
305 102 844
306 101 239
307 101 668
308 101 54
309 100 299
310 100 34
311 100 577
312 99 27
313 99 557
314 99 955
315 99 776
316 99 268
317 98 900
318 98 722
319 98 215
320 98 275
321 98 340
322 98 84
323 97 213
324 97 207
325 97 842
326 97 598
327 97 859
328 97 196
329 97 232
330 97 776
331 96 70
332 96 822
333 96 849
334 96 834
335 96 578
336 96 575
337 96 791
338 95 358
339 95 635
340 95 867
341 95 124
342 95 354
343 95 755
344 95 250
345 95 684
346 95 77
347 95 587
348 95 384
349 95 141
350 95 689
351 94 815
352 94 992
353 94 881
354 94 516
355 94 808
356 94 329
357 94 224
358 93 555
359 93 283
360 93 386
361 93 917
362 93 828
363 92 50
364 92 255
365 92 265
366 92 349
367 92 666
368 91 414
369 91 230
370 91 414
371 91 124
372 90 746
373 90 28
374 90 327
375 90 586
376 90 45
377 89 217
378 89 973
379 89 230
380 89 324
381 89 335
382 89 614
383 89 919
384 89 697
385 89 587
386 88 802
387 88 925
388 88 987
389 88 774
390 88 466
391 88 372
392 87 66
393 87 624
394 87 300
395 87 941
396 87 928
397 86 847
398 86 421
399 86 522
400 86 268
401 85 189
402 85 944
403 85 803
404 85 339
405 85 931
406 85 974
407 85 430
408 85 59
409 84 641
410 84 737
411 84 75
412 83 613
413 83 87
414 83 875
415 82 420
416 82 84
417 82 492
418 82 926
419 82 643
420 82 475
421 81 844
422 81 648
423 81 836
424 80 514
425 80 84
426 80 783
427 80 668
428 80 805
429 80 608
430 79 506
431 79 505
432 79 446
433 79 854
434 79 558
435 79 561
436 79 230
437 78 638
438 78 31
439 78 465
440 77 794
441 77 948
442 77 128
443 77 878
444 76 458
445 76 36
446 76 667
447 76 515
448 76 865
449 76 721
450 76 109
451 76 222
452 75 774
453 75 466
454 75 333
455 74 165
456 74 263
457 74 892
458 74 93
459 74 533
460 74 280
461 73 335
462 73 906
463 73 482
464 73 431
465 73 381
466 73 276
467 73 998
468 73 265
469 73 923
470 72 930
471 72 551
472 72 747
473 72 517
474 72 655
475 72 606
476 72 308
477 72 669
478 71 792
479 71 836
480 71 176
481 70 339
482 69 423
483 68 230
484 68 535
485 68 788
486 67 83
487 67 413
488 67 854
489 67 903
490 66 54
491 66 413
492 66 555
493 65 501
494 65 112
495 65 867
496 65 682
497 65 373
498 65 136
499 65 760
500 65 684
501 65 647
502 65 692
503 65 436
504 64 197
505 64 13
506 64 906
507 64 894
508 63 488
509 63 39
510 63 478
511 62 327
512 62 899
513 62 884
514 62 974
515 62 633
516 62 751
517 62 191
518 62 627
519 61 402
520 61 332
521 61 429
522 61 525
523 61 127
524 61 304
525 60 299
526 60 549
527 60 159
528 60 934
529 60 798
530 60 747
531 60 989
532 59 868
533 59 570
534 59 134
535 59 50
536 59 19
537 59 139
538 58 977
539 58 423
540 57 231
541 57 598
542 57 203
543 57 376
544 57 63
545 57 646
546 56 83
547 56 364
548 56 462
549 56 192
550 56 477
551 55 493
552 55 415
553 55 616
554 55 180
555 55 529
556 54 563
557 54 56
558 54 452
559 54 729
560 54 197
561 54 407
562 53 375
563 53 289
564 52 771
565 52 59
566 52 297
567 52 558
568 52 917
569 52 714
570 52 476
571 52 310
572 52 894
573 52 561
574 51 577
575 51 728
576 51 123
577 51 540
578 50 604
579 50 494
580 50 561
581 50 134
582 50 470
583 50 711
584 50 677
585 49 223
586 49 399
587 49 6
588 48 554
589 48 842
590 48 125
591 48 898
592 48 679
593 48 415
594 48 465
595 48 771
596 47 472
597 47 763
598 47 250
599 47 291
600 47 886
601 46 139
602 46 783
603 46 631
604 46 275
605 45 542
606 45 758
607 45 372
608 45 21
609 45 154
610 44 418
611 44 157
612 44 654
613 44 548
614 44 990
615 44 742
616 43 589
617 43 312
618 43 835
619 43 498
620 43 235
621 42 484
622 42 684
623 42 617
624 42 484
625 42 103
626 41 714
627 41 967
628 40 80
629 40 299
630 40 996
631 40 277
632 40 846
633 39 542
634 39 434
635 39 257
636 39 728
637 39 652
638 39 804
639 39 851
640 38 210
641 38 273
642 38 217
643 38 691
644 38 445
645 38 653
646 38 822
647 37 669
648 37 649
649 37 834
650 37 275
651 37 692
652 37 436
653 36 536
654 36 128
655 35 511
656 35 545
657 35 280
658 35 180
659 35 782
660 34 406
661 34 453
662 34 204
663 34 960
664 33 693
665 33 946
666 33 843
667 33 386
668 33 983
669 33 535
670 32 228
671 32 125
672 32 681
673 32 395
674 31 471
675 31 136
676 31 63
677 31 357
678 31 2
679 31 647
680 31 643
681 31 51
682 31 807
683 30 218
684 30 998
685 30 521
686 30 174
687 29 36
688 29 65
689 29 1000
690 28 346
691 28 972
692 28 856
693 28 308
694 28 429
695 28 239
696 28 206
697 28 506
698 28 273
699 28 902
700 28 596
701 27 393
702 27 998
703 27 174
704 27 300
705 27 24
706 27 617
707 27 361
708 26 472
709 26 508
710 26 930
711 26 917
712 26 443
713 25 113
714 25 639
715 25 59
716 25 438
717 25 208
718 25 76
719 25 601
720 25 479
721 25 144
722 24 227
723 24 270
724 24 715
725 24 650
726 24 722
727 23 367
728 23 527
729 23 534
730 23 408
731 23 679
732 23 943
733 23 299
734 23 401
735 22 35
736 22 357
737 22 423
738 22 920
739 22 836
740 22 7
741 22 187
742 21 306
743 21 597
744 20 12
745 20 883
746 20 778
747 20 241
748 20 825
749 20 86
750 20 972
